/* Objective function */
min: - 0.0054fpdi - 0.0054fpdo + 0.05apdi + 0.05apdo + 0.0002pi + 0.0002po - 0.5fsi - 0.5fso;

apdi = 0.0 hi + 0.0 li + 12.32163 ri + -0.05397 ci + -1.86524 si + 0.0 ti + 0.11184 fTempIi + 0.02312 ami + -148.98194;
asi = 0.0 hi + 0.0 li + -0.00013 ri + -0.00054 ci + -5e-05 si + 0.0 ti + -0.00023 fTempIi + 0.00023 ami + 0.00133;
aTempOi = 0.0 hi + 0.0 li + 0.26418 ri + -0.11505 ci + -0.056 si + 0.0 ti + 0.79209 fTempIi + -0.0007 ami + 6.75721;
fpdi = 0.0 hi + 0.0 li + 68.91216 ri + -511.88651 ci + -0.15139 si + 0.0 ti + -3.45318 fTempIi + 0.00189 ami + 1846.69893;
fsi = 0.0 hi + 0.0 li + -0.00018 ri + -0.57511 ci + 4e-05 si + 0.0 ti + 0.00112 fTempIi + -0.0 ami + 4.0069;
fTempOi = 0.0 hi + -0.0 li + -0.26226 ri + 0.11968 ci + 0.05586 si + -0.0 ti + 0.22536 fTempIi + -0.00065 ami + 10.19775;
pi = 0.0 hi + 0.0 li + 116.25833 ri + 3.46667 ci + -8.14143 si + -0.0 ti + -0.0 fTempIi + -0.0 ami + 296.1619;

apdo = 0.0 ho + 0.0 lo + 12.44841 ro + -0.01587 co + -1.33299 so + -0.0 to + 0.04739 fTempIo + 0.01674 amo + -105.74297;
aso = 0.0 ho + -0.0 lo + -0.00045 ro + -0.00067 co + -8e-05 so + -0.0 to + -0.00039 fTempIo + 0.00023 amo + 0.00471;
aTempOo = 0.0 ho + 0.0 lo + -0.46884 ro + 0.16819 co + 0.07095 so + 0.0 to + 0.71204 fTempIo + 0.00071 amo + 0.95795;
fpdo = 0.0 ho + -0.0 lo + 52.54206 ro + -246.77044 co + 0.1108 so + -0.0 to + -2.01029 fTempIo + -0.001 amo + 1017.71902;
fso = 0.0 ho + -0.0 lo + 0.00021 ro + -0.46 co + -3e-05 so + -0.0 to + 0.00077 fTempIo + 0.0 amo + 3.6321;
fTempOo = 0.0 ho + 0.0 lo + 0.45913 ro + -0.17004 co + -0.07042 so + -0.0 to + 0.29082 fTempIo + 0.00062 amo + 11.92256;
po = 0.0 ho + 0.0 lo + 106.27778 ro + 3.5 co + -5.69286 so + -0.0 to + 0.0 fTempIo + 0.0 amo + 283.1627;

/* Variable bounds */
aTempOi > 18.6;
1 =r6i + r8i + r10i + r12i + r14i;
ri =6r6i + 8r8i + 10r10i + 12r12i + 14r14i;
1 =s25i + s30i + s40i;
si =25s25i + 30s30i + 40s40i;
ti = 2;
apdi > 100;
apdi < 300;
asi > 0;
asi < 3;
aTempOi > 5;
aTempOi < 25;
fpdi > 100;
fpdi < 300;
fsi > 0;
fsi < 1.25;
fTempOi > 5;
fTempOi < 25;
pi > 0;
ri > 6;
ri < 14;
ci > 1;
ci < 5;
si > 25;
si < 60;
ti > 1;
ti < 3;
fTempIi > 5;
fTempIi < 25;

/* aTempOo < 11.4; */
1 =r6o + r8o + r10o + r12o + r14o;
ro =6r6o + 8r8o + 10r10o + 12r12o + 14r14o;
1 =s25o + s30o + s40o;
so =25s25o + 30s30o + 40s40o;
to = 2;
apdo > 100;
apdo < 300;
aso > 0;
aso < 3;
aTempOo > 5;
aTempOo < 25;
fpdo > 100;
fpdo < 300;
fso > 0;
fso < 1.25;
fTempOo > 5;
fTempOo < 25;
po > 0;
ro > 6;
ro < 10;
co > 1;
co < 6;
so > 25;
so < 60;
to > 1;
to < 3;
fTempIo > 5;
fTempIo < 25;
int hi,li,si,ti,ci,ri,ami;
int ho,lo,so,to,co,ro,amo;
bin s25i,s30i,s40i,s50i,s60i,r6i,r8i,r10i,r12i,r14i;
bin s25o,s30o,s40o,s50o,s60o,r6o,r8o,r10o,r12o,r14o;
